Nb of jobs, Nb of Machines, Time seed, Machine seed, Upper bound, Lower bound
10,5,-1,-1,-1,-1
Times
60,28,83,35,17
37,35,81,8,73
17,24,11,41,55
64,96,45,20,57
32,13,88,1,85
16,34,31,30,92
47,66,52,81,58
28,77,82,70,85
58,19,21,21,13
13,21,88,35,83
Machines
5,1,2,3,4
3,4,5,2,1
2,4,1,5,3
1,2,4,3,5
1,3,4,5,2
1,5,4,3,2
1,3,4,5,2
3,5,1,4,2
3,2,5,4,1
1,3,4,2,5
